(declare-fun temp142098_1 () (_ BitVec 64))
(declare-fun temp142098_2 () (_ BitVec 64))
(declare-fun var77740 () (_ BitVec 64))
(declare-fun k!0 () Bool)
(declare-fun ARGNAME_filter_NAMEEND_DIM () (_ BitVec 64))
(declare-fun ARGNAME_data_format_NAMEEND_STRFMT () (_ BitVec 64))
(declare-fun temp142098_3 () (_ BitVec 64))
(declare-fun ARGNAME_out_backprop_NAMEEND_DIM () (_ BitVec 64))
(declare-fun var77770 () (_ BitVec 64))
(declare-fun temp142098_4 () (_ BitVec 64))
(declare-fun temp142098_5 () (_ BitVec 64))
(declare-fun ARGNAME_filter_NAMEEND_DIMSIZE
             ()
             (Array (_ BitVec 64) (_ BitVec 64)))
(declare-fun temp142098_6 () (_ BitVec 64))
(declare-fun temp142098_7 () (_ BitVec 64))
(declare-fun temp142098_8 () (_ BitVec 64))
(declare-fun temp142098_9 () (_ BitVec 64))
(declare-fun temp142098_10 () (_ BitVec 64))
(declare-fun temp142098_11 () (_ BitVec 64))
(declare-fun temp142098_12 () (_ BitVec 64))
(declare-fun temp142098_13 () (_ BitVec 64))
(declare-fun temp142098_14 () (_ BitVec 64))
(declare-fun temp142098_15 () (_ BitVec 64))
(declare-fun temp142098_16 () (_ BitVec 64))
(declare-fun temp142098_17 () (_ BitVec 64))
(declare-fun temp142098_18 () (_ BitVec 64))
(declare-fun var77799 () (_ BitVec 64))
(declare-fun temp142098_19 () (_ BitVec 64))
(declare-fun ARGNAME_out_backprop_NAMEEND_DIMSIZE
             ()
             (Array (_ BitVec 64) (_ BitVec 64)))
(declare-fun temp142098_20 () (_ BitVec 64))
(declare-fun temp142098_21 () (_ BitVec 64))
(declare-fun temp142098_22 () (_ BitVec 64))
(declare-fun temp142098_23 () (_ BitVec 64))
(declare-fun temp142098_24 () (_ BitVec 64))
(declare-fun temp142098_25 () (_ BitVec 64))
(declare-fun temp142098_26 () (_ BitVec 64))
(declare-fun temp142098_27 () (_ BitVec 64))
(declare-fun temp142098_28 () (_ BitVec 64))
(declare-fun temp142098_29 () (_ BitVec 64))
(declare-fun temp142098_30 () (_ BitVec 64))
(declare-fun temp142098_31 () (_ BitVec 64))
(declare-fun temp142098_32 () (_ BitVec 64))
(declare-fun var77832 () (_ BitVec 64))
(declare-fun temp142098_33 () (_ BitVec 64))
(declare-fun temp142098_34 () (_ BitVec 64))
(declare-fun var77833 () (_ BitVec 64))
(declare-fun var77834 () (_ BitVec 64))
(declare-fun temp142098_35 () (_ BitVec 64))
(declare-fun temp142098_36 () (_ BitVec 64))
(declare-fun var275510 () (_ BitVec 64))
(declare-fun temp142098_37 () (_ BitVec 64))
(declare-fun var275528 () (_ BitVec 64))
(declare-fun temp142098_38 () (_ BitVec 64))
(declare-fun temp142098_40 () (_ BitVec 64))
(declare-fun temp142098_39 () (_ BitVec 64))
(declare-fun temp142098_42 () (_ BitVec 64))
(declare-fun temp142098_41 () (_ BitVec 64))
(declare-fun temp142098_43 () (_ BitVec 64))
(declare-fun var406582 () (_ BitVec 64))
(declare-fun temp142098_44 () (_ BitVec 64))
(declare-fun var406600 () (_ BitVec 64))
(declare-fun temp142098_45 () (_ BitVec 64))
(declare-fun temp142098_47 () (_ BitVec 64))
(declare-fun temp142098_46 () (_ BitVec 64))
(declare-fun temp142098_49 () (_ BitVec 64))
(declare-fun temp142098_48 () (_ BitVec 64))
(declare-fun temp142098_50 () (_ BitVec 64))
(declare-fun var537654 () (_ BitVec 64))
(declare-fun temp142098_51 () (_ BitVec 64))
(declare-fun var537672 () (_ BitVec 64))
(declare-fun temp142098_52 () (_ BitVec 64))
(declare-fun temp142098_54 () (_ BitVec 64))
(declare-fun temp142098_53 () (_ BitVec 64))
(declare-fun temp142098_56 () (_ BitVec 64))
(declare-fun temp142098_55 () (_ BitVec 64))
(declare-fun temp142098_58 () (_ BitVec 64))
(declare-fun temp142098_57 () (_ BitVec 64))
(declare-fun temp142098_60 () (_ BitVec 64))
(declare-fun temp142098_59 () (_ BitVec 64))
(declare-fun temp142098_61 () (_ BitVec 64))
(declare-fun var795723 () (_ BitVec 64))
(declare-fun var795702 () (_ BitVec 64))
(declare-fun var730134 () (_ BitVec 64))
(declare-fun temp142098_62 () (_ BitVec 64))
(declare-fun temp142098_63 () (_ BitVec 64))
(declare-fun var861259 () (_ BitVec 64))
(declare-fun var861238 () (_ BitVec 64))
(declare-fun var730144 () (_ BitVec 64))
(declare-fun temp142098_64 () (_ BitVec 64))
(declare-fun temp142098_65 () (_ BitVec 64))
(declare-fun var926795 () (_ BitVec 64))
(declare-fun var926774 () (_ BitVec 64))
(declare-fun var730147 () (_ BitVec 64))
(declare-fun temp142098_66 () (_ BitVec 64))
(declare-fun temp142098_67 () (_ BitVec 64))
(declare-fun var1123378 () (_ BitVec 64))
(declare-fun temp142098_68 () (_ BitVec 64))
(declare-fun var1188914 () (_ BitVec 64))
(declare-fun temp142098_69 () (_ BitVec 64))
(declare-fun var1254450 () (_ BitVec 64))
(declare-fun temp142098_71 () (_ BitVec 64))
(declare-fun temp142098_70 () (_ BitVec 64))
(declare-fun temp142098_73 () (_ BitVec 64))
(declare-fun temp142098_72 () (_ BitVec 64))
(assert (or (= ARGNAME_data_format_NAMEEND_STRFMT #x0000000000000000)
    (= ARGNAME_data_format_NAMEEND_STRFMT #x0000000000000001)
    (= ARGNAME_data_format_NAMEEND_STRFMT #x0000000000000002)
    (= ARGNAME_data_format_NAMEEND_STRFMT #x0000000000000003)
    (= ARGNAME_data_format_NAMEEND_STRFMT #x0000000000000004)
    (= ARGNAME_data_format_NAMEEND_STRFMT #x0000000000000005)))
(assert (= temp142098_1 #x0000000000000005))
(assert (= var77740
   (ite (= ARGNAME_filter_NAMEEND_DIM temp142098_1)
        #x0000000000000001
        #x0000000000000000)))
(assert (= temp142098_2 #x0000000000000001))
(assert (= var77740 temp142098_2))
(assert (= temp142098_3 #x0000000000000005))
(assert (= var77770
   (ite (= ARGNAME_out_backprop_NAMEEND_DIM temp142098_3)
        #x0000000000000001
        #x0000000000000000)))
(assert (= temp142098_4 #x0000000000000001))
(assert (= var77770 temp142098_4))
(assert (= temp142098_5 #x0000000000000000))
(assert (= temp142098_6 (select ARGNAME_filter_NAMEEND_DIMSIZE temp142098_5)))
(assert (= temp142098_7 #x0000000000000001))
(assert (= temp142098_8 (select ARGNAME_filter_NAMEEND_DIMSIZE temp142098_7)))
(assert (= temp142098_9 #x0000000000000002))
(assert (= temp142098_10 (select ARGNAME_filter_NAMEEND_DIMSIZE temp142098_9)))
(assert (= temp142098_11 #x0000000000000003))
(assert (= temp142098_12 (select ARGNAME_filter_NAMEEND_DIMSIZE temp142098_11)))
(assert (= temp142098_13 #x0000000000000004))
(assert (= temp142098_14 (select ARGNAME_filter_NAMEEND_DIMSIZE temp142098_13)))
(assert (= temp142098_15 #x0000000000000005))
(assert (= temp142098_16 (select ARGNAME_filter_NAMEEND_DIMSIZE temp142098_15)))
(assert (= temp142098_17 #x0000000000000003))
(assert (= temp142098_18 (select ARGNAME_filter_NAMEEND_DIMSIZE temp142098_17)))
(assert (= var77799 temp142098_18))
(assert (= temp142098_19 #x0000000000000000))
(assert (= temp142098_20 (select ARGNAME_out_backprop_NAMEEND_DIMSIZE temp142098_19)))
(assert (= temp142098_21 #x0000000000000001))
(assert (= temp142098_22 (select ARGNAME_out_backprop_NAMEEND_DIMSIZE temp142098_21)))
(assert (= temp142098_23 #x0000000000000002))
(assert (= temp142098_24 (select ARGNAME_out_backprop_NAMEEND_DIMSIZE temp142098_23)))
(assert (= temp142098_25 #x0000000000000003))
(assert (= temp142098_26 (select ARGNAME_out_backprop_NAMEEND_DIMSIZE temp142098_25)))
(assert (= temp142098_27 #x0000000000000004))
(assert (= temp142098_28 (select ARGNAME_out_backprop_NAMEEND_DIMSIZE temp142098_27)))
(assert (= temp142098_29 #x0000000000000005))
(assert (= temp142098_30 (select ARGNAME_out_backprop_NAMEEND_DIMSIZE temp142098_29)))
(assert (= temp142098_31 #x0000000000000004))
(assert (= temp142098_32 (select ARGNAME_out_backprop_NAMEEND_DIMSIZE temp142098_31)))
(assert (= var77832 temp142098_32))
(assert (= temp142098_33 #x0000000000000004))
(assert (= temp142098_34 (select ARGNAME_filter_NAMEEND_DIMSIZE temp142098_33)))
(assert (= var77833 temp142098_34))
(assert (= var77834 (ite (= var77832 var77833) #x0000000000000001 #x0000000000000000)))
(assert (= temp142098_35 #x0000000000000001))
(assert (= var77834 temp142098_35))
(assert (= temp142098_36 #x0000000000000001))
(assert (= var275510 temp142098_36))
(assert (= temp142098_37 #x0000000000000001))
(assert (= var275528
   (ite (bvslt var275510 temp142098_37) #x0000000000000001 #x0000000000000000)))
(assert (= temp142098_38 #x0000000000000000))
(assert (= var275528 temp142098_38))
(assert (= temp142098_40 #x0000000000000000))
(assert (= temp142098_39 temp142098_40))
(assert (= temp142098_42 #x0000000000000000))
(assert (= temp142098_41 temp142098_42))
(assert (= temp142098_43 #x0000000000000001))
(assert (= var406582 temp142098_43))
(assert (= temp142098_44 #x0000000000000001))
(assert (= var406600
   (ite (bvslt var406582 temp142098_44) #x0000000000000001 #x0000000000000000)))
(assert (= temp142098_45 #x0000000000000000))
(assert (= var406600 temp142098_45))
(assert (= temp142098_47 #x0000000000000000))
(assert (= temp142098_46 temp142098_47))
(assert (= temp142098_49 #x0000000000000000))
(assert (= temp142098_48 temp142098_49))
(assert (= temp142098_50 #x0000000000000001))
(assert (= var537654 temp142098_50))
(assert (= temp142098_51 #x0000000000000001))
(assert (= var537672
   (ite (bvslt var537654 temp142098_51) #x0000000000000001 #x0000000000000000)))
(assert (= temp142098_52 #x0000000000000000))
(assert (= var537672 temp142098_52))
(assert (= temp142098_54 #x0000000000000000))
(assert (= temp142098_53 temp142098_54))
(assert (= temp142098_56 #x00000000000000ff))
(assert (= temp142098_55 temp142098_56))
(assert (= temp142098_58 #x00000000000000ff))
(assert (= temp142098_57 temp142098_58))
(assert (= temp142098_60 #x00000000000000ff))
(assert (= temp142098_59 temp142098_60))
(assert (= temp142098_61 #x0000000000000000))
(assert (= var795723 temp142098_61))
(assert (= var795702 var795723))
(assert (= var730134 var795702))
(assert (= temp142098_62 #x0000000000000000))
(assert (= var730134 temp142098_62))
(assert (= temp142098_63 #x0000000000000000))
(assert (= var861259 temp142098_63))
(assert (= var861238 var861259))
(assert (= var730144 var861238))
(assert (= temp142098_64 #x0000000000000000))
(assert (= var730144 temp142098_64))
(assert (= temp142098_65 #x0000000000000000))
(assert (= var926795 temp142098_65))
(assert (= var926774 var926795))
(assert (= var730147 var926774))
(assert (= temp142098_66 #x0000000000000000))
(assert (= var730147 temp142098_66))
(assert (= temp142098_67 #x0000000000008000))
(assert (= var1123378 temp142098_67))
(assert (= temp142098_68 #x0000000000040000))
(assert (= var1188914 temp142098_68))
(assert (= temp142098_69 #x0000000000200000))
(assert (= var1254450 temp142098_69))
(assert (= temp142098_71 #x0000000000000001))
(assert (= temp142098_70 temp142098_71))
(assert (= temp142098_73 #x0000000000000001))
(assert (= temp142098_72 temp142098_73))
(model-add temp142098_1 () (_ BitVec 64) #x0000000000000005)
(model-add temp142098_2 () (_ BitVec 64) #x0000000000000001)
(model-add var77740 () (_ BitVec 64) #x0000000000000001)
(model-del k!0)
(model-add ARGNAME_filter_NAMEEND_DIM
           ()
           (_ BitVec 64)
           (ite k!0 #x0000000000000005 (bvnot #x0000000000000005)))


